

























































































34 35 66 
72 0 69 
3 56 64 
44 45 38 16 
2 22 51 
23 61 55 
48 6 18 
1 12 36 
74 46 40 
13 39 53 
76 24 41 
67 31 7 
15 59 73 
63 9 43 
71 14 32 
68 5 57 
30 21 25 
8 4 70 
58 11 19 
62 49 29 
28 42 10 
27 60 17 
50 75 33 
26 47 52 
54 37 65 20 
